DIMACS_lns/graph-1000-865.col
p edge 1000 1853
e 1 94
e 1 411
e 1 908
e 3 307
e 3 808
e 3 843
e 3 246
e 3 107
e 3 30
e 4 385
e 4 295
e 4 860
e 5 102
e 5 549
e 5 367
e 5 106
e 5 816
e 5 436
e 5 442
e 6 116
e 6 260
e 6 276
e 6 540
e 7 160
e 7 935
e 7 913
e 7 769
e 9 413
e 9 284
e 9 172
e 9 500
e 10 551
e 10 781
e 10 295
e 11 574
e 11 993
e 11 734
e 11 166
e 11 472
e 12 141
e 12 449
e 12 861
e 14 878
e 14 994
e 14 450
e 14 491
e 14 706
e 14 584
e 14 482
e 14 207
e 14 74
e 16 811
e 16 224
e 16 197
e 16 630
e 16 668
e 16 25
e 17 840
e 17 834
e 17 343
e 17 406
e 18 355
e 18 930
e 18 628
e 18 731
e 18 920
e 18 987
e 20 141
e 20 671
e 20 536
e 20 370
e 20 396
e 21 388
e 21 580
e 21 870
e 21 378
e 21 129
e 21 598
e 21 321
e 21 873
e 22 765
e 22 536
e 22 64
e 22 725
e 22 417
e 23 285
e 23 877
e 23 485
e 23 116
e 23 459
e 23 703
e 23 961
e 24 552
e 24 713
e 24 83
e 24 344
e 24 524
e 24 61
e 25 697
e 25 37
e 25 435
e 25 711
e 25 423
e 26 514
e 26 690
e 26 119
e 26 325
e 26 703
e 26 685
e 27 860
e 27 446
e 27 570
e 27 239
e 27 613
e 27 693
e 28 488
e 28 508
e 28 553
e 29 338
e 29 82
e 29 852
e 29 607
e 29 963
e 30 714
e 30 488
e 30 284
e 30 982
e 30 201
e 32 49
e 32 677
e 32 847
e 32 534
e 32 308
e 33 540
e 33 291
e 33 607
e 33 760
e 33 245
e 33 806
e 34 641
e 34 693
e 34 700
e 35 818
e 35 351
e 35 402
e 35 46
e 35 766
e 35 385
e 36 614
e 36 185
e 36 616
e 36 379
e 37 680
e 37 905
e 37 292
e 37 824
e 37 714
e 37 804
e 37 872
e 39 982
e 39 914
e 39 737
e 42 461
e 42 856
e 42 385
e 43 278
e 43 787
e 43 905
e 43 682
e 43 360
e 46 402
e 46 762
e 47 877
e 47 916
e 47 594
e 47 270
e 47 406
e 48 671
e 48 585
e 48 158
e 49 918
e 49 699
e 49 408
e 49 807
e 49 963
e 53 762
e 53 650
e 53 97
e 53 786
e 53 671
e 53 101
e 53 395
e 53 497
e 53 553
e 53 89
e 54 145
e 54 445
e 54 250
e 54 967
e 54 113
e 56 672
e 56 690
e 56 423
e 56 580
e 57 781
e 57 882
e 57 373
e 57 489
e 57 419
e 57 209
e 57 239
e 58 318
e 58 415
e 58 827
e 60 872
e 60 704
e 60 354
e 60 615
e 60 646
e 60 897
e 60 989
e 61 907
e 61 251
e 61 478
e 61 553
e 62 791
e 62 164
e 62 594
e 62 874
e 63 285
e 63 727
e 63 381
e 63 702
e 63 813
e 64 966
e 64 364
e 64 718
e 64 468
e 65 867
e 65 758
e 65 546
e 65 231
e 66 380
e 66 129
e 66 906
e 66 243
e 66 481
e 66 746
e 68 154
e 68 516
e 68 190
e 69 359
e 69 543
e 69 1000
e 71 229
e 71 495
e 71 207
e 72 166
e 72 855
e 72 751
e 74 552
e 74 674
e 74 745
e 74 723
e 74 882
e 74 787
e 74 877
e 75 632
e 75 765
e 75 91
e 75 250
e 76 401
e 76 781
e 76 297
e 77 616
e 77 316
e 77 773
e 77 679
e 77 997
e 78 302
e 78 289
e 78 734
e 78 602
e 79 832
e 79 894
e 79 818
e 79 812
e 79 175
e 81 866
e 81 695
e 81 691
e 81 515
e 82 295
e 82 355
e 82 230
e 82 233
e 82 378
e 83 529
e 83 588
e 84 336
e 84 325
e 84 120
e 85 316
e 85 388
e 85 811
e 85 596
e 85 451
e 86 986
e 86 757
e 86 610
e 87 986
e 87 133
e 87 860
e 87 116
e 87 344
e 89 996
e 89 168
e 89 111
e 91 693
e 91 579
e 91 387
e 91 637
e 92 109
e 92 840
e 92 375
e 92 149
e 92 151
e 92 386
e 92 227
e 92 769
e 92 923
e 93 853
e 93 677
e 93 578
e 93 980
e 93 567
e 94 718
e 94 818
e 94 657
e 94 289
e 95 376
e 95 677
e 95 343
e 95 268
e 95 842
e 97 711
e 97 300
e 97 109
e 98 874
e 98 689
e 98 766
e 99 818
e 99 277
e 99 960
e 100 913
e 100 989
e 100 912
e 100 627
e 100 679
e 100 522
e 101 571
e 101 709
e 101 974
e 101 759
e 102 703
e 102 961
e 103 135
e 103 966
e 103 581
e 103 454
e 103 237
e 103 854
e 104 974
e 104 572
e 104 854
e 104 198
e 106 615
e 106 450
e 106 660
e 106 543
e 107 436
e 107 117
e 107 832
e 107 743
e 109 725
e 109 387
e 110 240
e 110 693
e 110 193
e 110 886
e 110 135
e 110 623
e 110 397
e 111 451
e 111 149
e 112 304
e 112 520
e 112 242
e 112 859
e 112 767
e 113 799
e 113 875
e 113 649
e 113 683
e 113 801
e 114 853
e 114 666
e 114 410
e 116 754
e 116 612
e 117 658
e 117 345
e 118 933
e 118 136
e 118 914
e 118 655
e 118 485
e 118 614
e 118 260
e 118 607
e 119 535
e 119 854
e 119 600
e 120 787
e 120 777
e 120 554
e 120 822
e 120 698
e 121 670
e 121 415
e 121 372
e 121 743
e 121 570
e 122 890
e 122 690
e 122 736
e 123 825
e 123 571
e 123 422
e 123 669
e 124 438
e 124 869
e 124 592
e 125 293
e 125 966
e 125 724
e 128 997
e 128 674
e 128 305
e 128 628
e 128 640
e 128 777
e 129 149
e 131 654
e 131 988
e 131 702
e 131 192
e 133 266
e 133 604
e 133 258
e 133 649
e 133 883
e 134 622
e 134 368
e 134 773
e 135 139
e 135 791
e 136 524
e 136 850
e 137 861
e 137 378
e 137 840
e 138 933
e 138 989
e 138 382
e 138 187
e 139 231
e 139 695
e 139 281
e 139 238
e 139 347
e 139 397
e 139 348
e 140 236
e 140 292
e 140 227
e 140 643
e 141 261
e 141 147
e 142 744
e 142 404
e 142 173
e 142 723
e 143 763
e 143 149
e 143 654
e 143 279
e 144 625
e 144 940
e 144 672
e 144 246
e 144 630
e 145 787
e 145 468
e 145 492
e 147 406
e 147 581
e 147 533
e 147 654
e 147 341
e 147 463
e 147 870
e 148 689
e 148 969
e 148 953
e 148 479
e 149 890
e 149 736
e 149 321
e 149 806
e 149 178
e 149 249
e 149 739
e 151 649
e 151 531
e 151 443
e 151 202
e 151 359
e 152 923
e 152 445
e 152 527
e 153 763
e 153 497
e 153 516
e 153 224
e 153 579
e 153 514
e 154 805
e 154 279
e 155 776
e 155 482
e 155 997
e 155 636
e 155 642
e 155 377
e 155 992
e 156 919
e 156 885
e 156 380
e 157 308
e 157 386
e 157 981
e 157 490
e 157 209
e 157 514
e 158 236
e 158 877
e 158 231
e 158 180
e 159 703
e 159 447
e 159 759
e 159 609
e 159 847
e 159 790
e 160 444
e 160 417
e 160 215
e 160 597
e 163 594
e 163 712
e 163 327
e 164 463
e 164 257
e 164 596
e 164 519
e 166 976
e 166 683
e 166 615
e 167 377
e 167 986
e 167 185
e 167 832
e 167 827
e 167 428
e 168 860
e 168 800
e 168 786
e 168 339
e 171 806
e 171 278
e 171 445
e 171 540
e 172 827
e 172 870
e 172 735
e 172 964
e 172 239
e 172 837
e 173 432
e 173 874
e 175 840
e 175 508
e 175 316
e 177 996
e 177 654
e 177 804
e 178 257
e 178 668
e 178 603
e 179 448
e 179 338
e 179 638
e 179 906
e 180 925
e 180 817
e 181 602
e 181 906
e 181 614
e 181 793
e 182 272
e 182 189
e 182 871
e 182 461
e 182 907
e 182 715
e 184 248
e 184 743
e 184 373
e 184 671
e 184 573
e 185 937
e 186 562
e 186 375
e 186 453
e 187 509
e 187 901
e 187 921
e 189 968
e 189 823
e 189 390
e 189 215
e 190 896
e 190 268
e 190 201
e 191 406
e 191 390
e 191 687
e 191 846
e 191 932
e 191 703
e 192 985
e 192 861
e 192 990
e 193 328
e 193 542
e 193 965
e 194 956
e 194 812
e 194 910
e 197 628
e 197 360
e 197 483
e 197 706
e 197 921
e 197 454
e 197 724
e 198 204
e 198 740
e 199 804
e 199 669
e 199 801
e 199 785
e 200 274
e 200 248
e 200 913
e 200 677
e 201 242
e 201 419
e 201 278
e 201 622
e 202 398
e 202 737
e 202 764
e 202 735
e 204 377
e 204 688
e 204 495
e 207 770
e 207 791
e 207 674
e 207 362
e 208 658
e 208 454
e 208 998
e 209 644
e 209 592
e 209 380
e 209 769
e 209 334
e 209 659
e 209 613
e 213 947
e 213 293
e 213 397
e 213 739
e 215 763
e 215 985
e 215 254
e 216 444
e 216 775
e 216 377
e 216 470
e 217 309
e 217 220
e 217 295
e 217 988
e 217 611
e 217 452
e 217 772
e 217 482
e 217 649
e 220 595
e 220 574
e 220 539
e 220 302
e 220 274
e 221 957
e 221 925
e 221 664
e 223 598
e 223 281
e 223 225
e 224 628
e 225 910
e 225 940
e 225 443
e 225 774
e 227 363
e 227 785
e 227 470
e 228 273
e 228 769
e 228 684
e 228 978
e 229 651
e 229 474
e 230 327
e 230 672
e 230 791
e 231 321
e 231 775
e 232 385
e 232 724
e 232 370
e 232 443
e 233 279
e 233 426
e 234 611
e 234 487
e 234 804
e 235 939
e 235 568
e 235 334
e 236 331
e 237 848
e 237 372
e 238 492
e 238 613
e 239 850
e 239 509
e 239 738
e 239 353
e 239 565
e 239 252
e 240 899
e 240 804
e 241 402
e 241 358
e 241 417
e 242 957
e 243 610
e 243 987
e 243 254
e 243 290
e 243 300
e 244 699
e 244 754
e 244 439
e 244 825
e 244 381
e 245 940
e 245 637
e 246 996
e 246 626
e 248 738
e 249 951
e 249 638
e 249 295
e 250 330
e 250 963
e 250 262
e 250 420
e 251 550
e 251 455
e 251 818
e 251 983
e 252 922
e 252 802
e 252 880
e 252 534
e 253 582
e 253 835
e 253 328
e 253 643
e 254 829
e 254 470
e 254 413
e 256 540
e 256 734
e 256 571
e 256 484
e 257 483
e 257 445
e 257 314
e 257 625
e 258 873
e 258 456
e 258 655
e 258 745
e 258 300
e 258 344
e 258 936
e 258 613
e 258 494
e 260 573
e 260 519
e 261 547
e 261 939
e 261 704
e 261 369
e 261 961
e 261 368
e 261 396
e 261 573
e 261 724
e 262 295
e 262 377
e 262 373
e 265 897
e 265 467
e 265 779
e 266 305
e 266 449
e 266 277
e 266 482
e 266 863
e 268 447
e 268 915
e 268 732
e 268 886
e 268 896
e 270 994
e 270 968
e 270 947
e 270 607
e 270 980
e 270 939
e 272 386
e 272 329
e 272 832
e 273 455
e 273 704
e 274 619
e 274 527
e 274 523
e 275 986
e 275 438
e 275 734
e 275 428
e 276 646
e 276 482
e 276 429
e 276 515
e 276 638
e 277 897
e 277 678
e 278 598
e 278 823
e 278 760
e 278 545
e 278 680
e 278 812
e 279 490
e 279 319
e 281 527
e 281 318
e 283 754
e 283 305
e 283 624
e 283 292
e 284 933
e 284 353
e 284 537
e 284 714
e 285 734
e 285 306
e 285 338
e 285 731
e 285 529
e 287 527
e 287 334
e 287 824
e 288 797
e 288 724
e 288 940
e 289 555
e 289 380
e 289 852
e 289 857
e 289 905
e 289 940
e 289 593
e 290 578
e 290 441
e 290 567
e 291 311
e 291 602
e 291 575
e 292 373
e 292 293
e 292 703
e 293 450
e 293 314
e 293 574
e 293 862
e 293 504
e 293 596
e 295 361
e 295 662
e 296 428
e 296 408
e 296 406
e 297 906
e 297 976
e 297 564
e 297 642
e 299 610
e 299 480
e 299 611
e 300 855
e 300 703
e 300 779
e 300 519
e 302 931
e 302 587
e 302 431
e 303 801
e 303 703
e 303 332
e 303 762
e 303 720
e 304 815
e 304 387
e 304 598
e 305 443
e 305 625
e 306 450
e 306 776
e 306 448
e 307 423
e 307 323
e 307 963
e 308 866
e 308 776
e 308 345
e 309 330
e 309 966
e 310 870
e 310 749
e 310 966
e 311 852
e 311 555
e 314 874
e 314 359
e 314 545
e 314 939
e 316 625
e 317 837
e 317 1000
e 317 930
e 318 635
e 318 945
e 318 559
e 318 929
e 319 878
e 319 764
e 319 600
e 321 913
e 321 379
e 322 799
e 322 824
e 322 936
e 323 434
e 323 594
e 323 425
e 325 443
e 327 621
e 327 330
e 327 866
e 328 659
e 328 478
e 328 723
e 329 964
e 329 497
e 329 579
e 329 821
e 329 894
e 329 367
e 329 656
e 330 628
e 330 431
e 330 922
e 331 621
e 331 597
e 332 482
e 332 630
e 332 417
e 332 684
e 334 580
e 334 994
e 336 939
e 336 938
e 336 923
e 337 713
e 337 978
e 337 914
e 338 775
e 338 370
e 338 353
e 339 382
e 339 411
e 339 847
e 341 377
e 341 432
e 341 690
e 341 358
e 343 754
e 343 382
e 343 855
e 343 861
e 344 757
e 344 627
e 345 604
e 345 975
e 347 953
e 347 1000
e 347 778
e 348 496
e 348 913
e 348 599
e 348 850
e 348 685
e 349 623
e 349 682
e 349 893
e 349 766
e 350 554
e 350 447
e 350 643
e 350 899
e 350 772
e 351 527
e 351 603
e 353 514
e 353 685
e 354 991
e 354 789
e 354 815
e 354 872
e 354 692
e 354 537
e 355 827
e 355 698
e 358 777
e 358 818
e 359 581
e 359 678
e 359 393
e 360 544
e 361 623
e 361 440
e 361 691
e 362 540
e 362 837
e 363 687
e 363 401
e 364 899
e 364 709
e 364 821
e 366 710
e 366 514
e 366 660
e 367 488
e 367 734
e 367 386
e 367 832
e 367 937
e 368 666
e 368 873
e 368 535
e 369 920
e 369 998
e 369 544
e 370 481
e 370 536
e 370 822
e 370 915
e 372 811
e 372 907
e 372 720
e 372 527
e 372 437
e 373 699
e 373 615
e 375 938
e 375 593
e 375 911
e 376 500
e 376 480
e 376 427
e 377 549
e 377 838
e 377 593
e 378 716
e 378 697
e 379 919
e 380 910
e 380 676
e 381 927
e 382 838
e 382 698
e 382 485
e 382 408
e 385 403
e 386 582
e 388 564
e 388 590
e 388 664
e 390 641
e 390 818
e 390 542
e 393 567
e 393 494
e 393 929
e 395 921
e 395 583
e 395 428
e 395 711
e 396 653
e 396 630
e 397 775
e 397 968
e 397 871
e 397 782
e 398 986
e 398 683
e 400 949
e 400 644
e 400 975
e 400 573
e 400 851
e 401 472
e 401 583
e 403 823
e 403 711
e 403 914
e 403 786
e 404 468
e 404 980
e 404 882
e 404 923
e 406 628
e 408 692
e 408 945
e 410 959
e 410 689
e 411 609
e 412 815
e 412 918
e 412 495
e 413 436
e 413 527
e 413 954
e 415 604
e 417 490
e 417 689
e 417 712
e 417 906
e 417 714
e 417 880
e 419 436
e 419 600
e 420 582
e 420 672
e 420 712
e 420 990
e 420 549
e 422 930
e 422 679
e 422 940
e 422 786
e 422 772
e 423 744
e 423 594
e 425 911
e 425 490
e 425 654
e 426 835
e 426 847
e 427 690
e 427 765
e 427 762
e 428 762
e 429 543
e 429 489
e 429 520
e 431 619
e 431 531
e 432 704
e 432 622
e 434 913
e 434 544
e 434 983
e 434 900
e 435 919
e 435 992
e 435 717
e 435 757
e 437 766
e 437 780
e 438 677
e 438 669
e 438 527
e 438 745
e 438 859
e 439 595
e 439 535
e 439 791
e 439 902
e 440 845
e 440 904
e 441 958
e 441 726
e 442 893
e 442 734
e 443 889
e 443 830
e 443 916
e 443 894
e 444 760
e 444 574
e 444 782
e 445 547
e 446 774
e 446 509
e 448 555
e 448 515
e 449 642
e 449 749
e 449 789
e 449 838
e 450 958
e 450 520
e 451 484
e 452 691
e 452 579
e 453 825
e 453 886
e 453 520
e 454 701
e 454 861
e 454 616
e 454 758
e 455 805
e 455 612
e 455 855
e 455 954
e 456 802
e 456 550
e 456 893
e 458 916
e 458 800
e 458 938
e 459 478
e 459 817
e 461 542
e 461 976
e 461 543
e 463 844
e 463 981
e 463 616
e 464 502
e 464 628
e 464 549
e 465 470
e 465 778
e 465 843
e 466 543
e 466 850
e 466 662
e 466 693
e 466 861
e 467 949
e 467 870
e 467 790
e 468 655
e 468 824
e 470 818
e 472 514
e 472 910
e 472 624
e 474 512
e 474 656
e 475 720
e 475 595
e 475 582
e 475 990
e 475 856
e 478 924
e 479 806
e 479 699
e 480 702
e 480 797
e 481 937
e 481 627
e 481 673
e 481 912
e 482 524
e 483 759
e 484 666
e 484 534
e 485 989
e 485 570
e 487 936
e 487 918
e 488 867
e 488 653
e 488 866
e 488 853
e 489 850
e 489 908
e 490 548
e 491 872
e 491 615
e 491 798
e 492 534
e 492 614
e 492 735
e 494 793
e 494 921
e 494 673
e 494 512
e 494 979
e 495 761
e 495 937
e 495 966
e 496 904
e 496 607
e 496 716
e 496 671
e 497 907
e 497 979
e 500 964
e 500 754
e 500 585
e 502 554
e 502 802
e 504 975
e 504 867
e 508 770
e 508 544
e 509 825
e 510 787
e 510 602
e 510 688
e 512 932
e 512 846
e 512 790
e 514 718
e 515 980
e 515 635
e 516 575
e 516 671
e 516 746
e 517 632
e 517 883
e 517 976
e 518 691
e 518 1000
e 518 896
e 519 572
e 519 651
e 520 615
e 520 623
e 520 718
e 521 562
e 521 584
e 521 890
e 521 701
e 521 623
e 522 992
e 522 802
e 522 795
e 523 731
e 523 567
e 523 863
e 524 671
e 527 966
e 528 590
e 528 572
e 528 922
e 529 544
e 529 900
e 529 854
e 531 584
e 531 960
e 531 845
e 531 927
e 533 683
e 533 723
e 534 838
e 534 537
e 534 955
e 534 785
e 535 724
e 536 636
e 536 930
e 537 732
e 537 827
e 537 640
e 538 581
e 538 821
e 538 599
e 538 958
e 538 570
e 539 627
e 539 858
e 539 871
e 540 731
e 542 624
e 542 751
e 542 812
e 544 674
e 544 546
e 545 684
e 546 548
e 546 981
e 546 702
e 547 702
e 548 621
e 548 857
e 549 637
e 549 735
e 549 853
e 550 990
e 550 972
e 550 612
e 550 821
e 551 604
e 551 874
e 551 662
e 552 905
e 552 758
e 553 685
e 553 675
e 553 568
e 553 782
e 554 903
e 554 921
e 555 749
e 559 935
e 559 687
e 559 804
e 561 734
e 561 587
e 561 835
e 562 922
e 562 739
e 564 811
e 565 860
e 565 710
e 565 993
e 565 649
e 568 951
e 568 580
e 570 674
e 571 773
e 571 861
e 572 623
e 573 638
e 574 675
e 574 908
e 574 808
e 574 981
e 575 885
e 578 968
e 579 743
e 579 961
e 579 692
e 580 638
e 580 640
e 580 676
e 580 626
e 580 988
e 581 840
e 582 632
e 583 851
e 584 757
e 584 973
e 585 904
e 585 628
e 587 602
e 587 682
e 587 997
e 588 825
e 588 735
e 588 777
e 589 766
e 589 684
e 589 774
e 589 702
e 589 801
e 590 932
e 590 780
e 592 678
e 592 992
e 593 846
e 593 937
e 594 869
e 594 919
e 595 758
e 595 816
e 595 999
e 597 834
e 598 801
e 598 674
e 598 764
e 598 998
e 599 793
e 600 740
e 600 805
e 602 630
e 603 912
e 604 830
e 604 894
e 609 767
e 609 799
e 609 716
e 609 845
e 609 693
e 609 982
e 610 685
e 610 779
e 611 953
e 612 781
e 612 862
e 612 936
e 613 886
e 613 880
e 615 853
e 615 790
e 615 964
e 616 795
e 616 666
e 616 964
e 616 904
e 616 976
e 619 749
e 621 731
e 623 734
e 625 675
e 625 755
e 626 685
e 626 830
e 626 844
e 627 931
e 627 644
e 628 812
e 630 818
e 630 829
e 632 925
e 632 649
e 635 779
e 636 835
e 636 777
e 637 776
e 637 733
e 638 973
e 640 679
e 641 680
e 641 999
e 642 927
e 642 994
e 642 723
e 644 949
e 644 912
e 646 744
e 646 777
e 650 749
e 650 996
e 650 699
e 651 940
e 653 839
e 653 815
e 653 801
e 653 773
e 654 762
e 654 779
e 654 951
e 655 685
e 656 716
e 656 882
e 657 947
e 657 987
e 657 713
e 658 955
e 659 725
e 659 795
e 660 983
e 662 886
e 664 904
e 666 767
e 666 835
e 666 717
e 668 930
e 669 960
e 669 782
e 669 688
e 669 811
e 670 966
e 670 889
e 670 714
e 670 960
e 671 767
e 672 919
e 672 838
e 672 902
e 673 690
e 673 938
e 673 991
e 675 724
e 676 772
e 679 799
e 679 763
e 680 683
e 683 715
e 684 808
e 685 790
e 685 797
e 689 990
e 689 863
e 693 873
e 693 992
e 693 734
e 693 733
e 695 788
e 695 967
e 697 815
e 699 982
e 699 912
e 700 701
e 700 710
e 701 993
e 701 949
e 703 866
e 704 777
e 704 935
e 706 981
e 706 798
e 709 937
e 709 986
e 709 979
e 710 800
e 710 988
e 711 957
e 711 875
e 711 949
e 713 901
e 714 858
e 714 912
e 715 835
e 716 727
e 717 802
e 717 856
e 717 769
e 718 842
e 720 913
e 723 726
e 724 932
e 726 806
e 727 988
e 727 800
e 727 930
e 732 861
e 732 856
e 732 949
e 732 859
e 733 870
e 734 894
e 735 736
e 735 854
e 736 930
e 737 923
e 738 986
e 740 935
e 740 786
e 745 927
e 746 931
e 751 807
e 751 769
e 753 954
e 753 999
e 753 877
e 754 907
e 754 927
e 755 842
e 755 838
e 759 780
e 760 927
e 761 893
e 761 974
e 761 899
e 763 843
e 764 964
e 764 989
e 765 921
e 765 903
e 766 822
e 766 978
e 767 990
e 770 835
e 770 788
e 770 896
e 770 907
e 772 905
e 772 831
e 773 830
e 773 832
e 775 959
e 776 886
e 776 800
e 778 883
e 778 820
e 779 824
e 780 949
e 780 845
e 786 797
e 786 843
e 786 924
e 786 959
e 787 831
e 788 789
e 789 827
e 790 1000
e 790 846
e 791 938
e 795 978
e 798 839
e 800 949
e 801 857
e 804 842
e 805 900
e 806 965
e 807 847
e 811 985
e 813 882
e 813 955
e 816 931
e 817 1000
e 817 857
e 818 904
e 820 974
e 820 869
e 821 931
e 822 834
e 822 874
e 829 978
e 829 847
e 829 857
e 829 885
e 830 974
e 831 953
e 832 885
e 835 843
e 837 986
e 839 959
e 839 975
e 840 904
e 844 914
e 844 860
e 844 903
e 846 916
e 846 883
e 848 867
e 848 912
e 848 905
e 850 902
e 851 869
e 852 920
e 853 956
e 854 874
e 858 901
e 858 929
e 859 897
e 859 862
e 861 923
e 866 901
e 866 940
e 867 974
e 870 972
e 871 965
e 871 972
e 874 905
e 875 927
e 877 927
e 877 994
e 878 896
e 878 969
e 880 924
e 882 968
e 882 996
e 889 937
e 896 958
e 901 999
e 901 918
e 908 991
e 908 973
e 910 916
e 911 930
e 913 986
e 915 973
e 918 954
e 918 979
e 923 961
e 945 961
e 956 999
e 963 965
e 967 997
e 969 978
e 974 988
e 978 990
e 987 990
